
&GLOBAL
   PROJECT GeTeMD
   RUN_TYPE MD
   PRINT_LEVEL LOW
   &TIMINGS
      THRESHOLD 0.000001
   &END TIMINGS
&END GLOBAL

&FORCE_EVAL
   METHOD Quickstep
   STRESS_TENSOR ANALYTICAL
   &DFT
      BASIS_SET_FILE_NAME BASIS_MOLOPT
      POTENTIAL_FILE_NAME GTH_POTENTIALS
      &SCF
         MAX_SCF    500
         SCF_GUESS  ATOMIC
         &MIXING
            METHOD BROYDEN_MIXING
         &END MIXING
         &SMEAR ON
            METHOD FERMI_DIRAC
            ELECTRONIC_TEMPERATURE 300
         &END SMEAR
      &END SCF
      &MGRID
         NGRIDS        4
         CUTOFF        40
         REL_CUTOFF    60
      &END MGRID
      &XC
         &XC_FUNCTIONAL BLYP
         &END XC_FUNCTIONAL
      &END XC
   &END DFT
   &SUBSYS
      &KIND Te
         BASIS_SET DZVP-MOLOPT-SR-GTH-q6
         POTENTIAL GTH-BLYP-q6
      &END KIND
      &KIND Ge
         BASIS_SET DZVP-MOLOPT-SR-GTH-q4
         POTENTIAL GTH-BLYP-q4
      &END KIND
      &COORD
         Ge 3.2076183048371667 9.858543030651745 13.261327801128326
         Ge 16.430938172608656 19.647811856300752 16.515066270378945
         Ge 13.202165753457253 19.700027448397794 0.05583668093849642
         Ge 3.3766883257100346 13.146460085403806 3.3034493748887934
         Ge 3.3362911019764847 6.68809958347571 3.388766416576433
         Ge 0.1118662035548886 9.75028423339953 3.342313155505054
         Ge 3.186814454635238 6.653047285655343 6.55141445660491
         Ge 6.614619264424915 3.302552695434623 6.576433910386921
         Ge 13.075251748357834 9.880157275813295 6.673815750618329
         Ge 19.662258755924412 19.620250730352055 13.06474255488972
         Ge 13.06264993616291 9.830826680373947 13.208050464183625
         Ge 3.35054340193074 9.736518198756864 16.505051954895887
         Ge 19.70843818715786 3.382662750013714 3.200795422191702
         Ge 19.608615595395456 3.21468044052619 16.529222133234782
         Ge 19.59515211928981 6.637855716925017 3.3038676122326796
         Ge 3.347153335035582 13.089785016370719 19.619601893144388
         Ge 9.855075242403922 6.686070028681844 3.1902552191932356
         Ge 13.21726971270149 16.48563710771033 9.792823752288232
         Ge 16.494870781346723 13.215871735808243 13.095361046591506
         Ge 16.46897967318221 16.305094224462746 13.264508593090687
         Ge 9.853482672395536 19.634915219982766 9.929985474155869
         Ge 3.2717906494763134 16.402929128617536 13.245716417456403
         Ge 3.291842226770153 9.73725148550465 6.568640108488864
         Ge 0.03320415471402918 16.4217451979587 16.502365050002858
         Ge 6.662471526397161 16.49798545839097 6.64426675878308
         Ge 6.586102263837476 9.967609365069734 6.459569510313065
         Ge 13.121529979042721 9.954201917601727 19.61547784190186
         Ge 9.906669260212327 16.362890053059512 16.306442959712054
         Ge 9.742711683923021 0.0015415670309497642 3.1697431966790997
         Ge 16.43727072223953 3.230743831128434 6.468086576764753
         Ge 19.709125193518933 13.174269003287996 9.862830127036236
         Te 3.228541800843108 0.06419465875951955 9.77324996471379
         Te 16.309181314169088 9.876439447712565 0.09064133392904468
         Te 9.836458660037138 16.479046675338015 19.627138910608405
         Te 6.512164522296094 13.183216912776903 6.521205711941412
         Te 6.546821223305899 3.314011701288399 16.380257401311084
         Te 6.536143900376568 19.669348526720917 16.480715155587223
         Te 9.86751930854806 16.385717208526426 3.293146154140872
         Te 6.621220542384562 6.574082105720749 9.918861387289587
         Te 0.08744637958981524 3.3864750327638484 13.073593434150043
         Te 3.3485047535719725 19.699047287380512 3.363354970426229
         Te 13.17212038500014 9.870731002085593 16.54891878449131
         Te 3.1993502593403695 9.901438780666814 3.4068464197562895
         Te 3.3892440260070535 16.33663438565517 0.09787194574875413
         Te 6.606532888790961 13.109744966616088 0.023116485071738496
         Te 16.303300673428154 16.55011554464638 3.245286467490227
         Te 19.656233323619443 6.491773018244318 16.509670603413856
         Te 3.33539502983594 16.548819998107305 6.487842773257217
         Te 6.669417065179228 3.3166541077224077 9.74444777886155
         Te 3.2421326558949284 13.185804128051048 9.786561425832426
         Te 19.682711519212692 6.524759723881962 9.956316568609331
         Te 6.519000117553503 9.979880359553116 0.11427781805560183
         Te 6.669670456856257 16.486515388043113 13.190295221162605
         Te 13.155919083605863 16.370043559171457 6.520881329838836
         Te 3.3102556844684723 16.415040068046338 16.40042475751781
         Te 0.05741880225322654 3.1811765467506694 6.4580237880556295
         Te 19.707115159203823 6.5164307586350265 13.064908861094313
         Te 16.318485524489887 3.192696852504634 13.035200282941418
         Te 16.46811897634046 13.261320549431998 0.08837538974414688
         Te 16.325937645513534 3.3411069961447226 3.3566461976816275
         Te 16.52181333678376 16.458686556145935 6.474595873381233
         Te 3.390252303684827 3.191757672554089 0.11257113136741749
         Te 16.40214851260239 6.683143548892272 19.626730933186327
         Te 3.3770372458593174 3.298401336992988 13.065624120031124
         Te 6.537528706448534 6.595138097020191 16.374253194047032
         Te 9.751777767705391 6.631704155409039 9.808938605809045
         Te 13.167361868204981 3.3782744117862595 9.928523965819661
         Te 3.333511330911492 3.2007546711235504 16.5487759305144
         Te 6.534313545305687 13.02116563635192 13.062694092970487
         Te 16.51514937860717 16.35236136088685 9.95075636834282
         Te 3.312847288894882 6.588878803590384 19.668997643448282
         Te 6.547832962749765 9.94061682254648 9.92003576796809
         Te 9.952175273888319 9.894674437630403 3.297796321797659
         Te 13.16977204542605 3.346095083062884 6.6730104032219
         Te 13.222953985252293 3.2220211374342784 3.322823776268819
         Te 13.051662022616075 9.922415221463172 3.2658897126074904
         Te 13.14875679917562 13.033577838055137 0.05168634558773025
         Te 16.364167793046615 0.0018593385615990332 6.6745103146888605
         Te 16.328557521582923 9.953909989028896 3.3962143850805138
         Te 3.3282414652580763 13.08354105574838 16.37852192727072
         Te 6.522940470317202 9.758132236799472 13.145004268639722
         Te 19.609286190398755 16.34699338881577 19.664692118629805
         Te 3.3199535885414657 16.470021323382188 9.788071024857185
         Te 6.509184855595951 3.3297042559818517 3.2812778439880512
         Te 16.30730790098537 0.09991807111054571 13.066304060124
         Te 9.970331975998322 9.890047417126373 0.07482845899281901
         Te 16.396481253963984 3.2573001244986477 19.673673706864285
         Te 6.662267902451977 0.11833038499531924 6.460956596001963
         Te 9.975630346384918 0.019866741062404852 13.222011762074521
         Te 6.562251494738476 13.061299731356037 16.455022710834964
         Te 16.368341134280737 3.3924820826413895 16.350269444712374
         Te 9.911966224973598 13.039266057994281 13.089758015790645
         Te 0.09340801243949265 16.439085654318813 9.819906611042517
         Te 6.5183945799871115 16.31397570331997 9.795845922864732
         Te 0.08425669154617271 3.2605408562353806 9.937087697160301
         Te 16.30812029919895 13.23848067501917 3.196504122990115
         Te 16.494236141462107 9.851141751599556 6.679304626639861
         Te 6.62330027955568 19.620019296552208 3.3960203109835922
         Te 9.770729878016228 3.3148707929603187 0.05622205244769002
         Te 6.650201965307984 16.548183116957226 3.3724311540535767
         Te 16.551060673095794 0.0542914798460887 9.764080750856726
         Te 19.63711563424366 9.810753381102607 6.528768608698605
         Te 3.396728601719654 19.659773346856564 0.018746192564534497
         Te 16.534425394609237 6.509917209395133 3.335474024971769
         Te 9.836364294364929 9.810452091671017 13.056615755031105
         Te 9.850468772263213 3.3670454400919363 3.269155885964345
         Te 3.1730850860677227 13.08681410443438 6.515262151384894
         Te 3.4040844835574475 19.68283391154441 13.079921168571143
         Te 13.03081502998449 13.138481867122847 3.205151128628291
         Te 13.14801904737864 6.4511303271661475 9.881553542556558
         Te 6.470909665964284 6.514879501702832 13.155601618429916
         Te 9.751629878732766 3.2397434645820775 16.400314497027175
         Te 6.6019074239290925 16.49841826887605 16.405232812382405
         Te 6.576605351270103 3.2013070086096103 13.06171247669008
         Te 16.392992805193774 6.485371591539568 9.74525962443185
         Te 19.679435205468142 16.445364672106127 3.2816736147220147
         Te 16.476948233092813 9.909724090377939 16.379765427405708
         Te 13.05243847499573 0.08573383707899601 13.097100240586439
         Te 16.328703705650153 16.366802400609764 19.599674662866455
         Te 13.089625411486267 3.375678365888073 16.475972047335716
         Te 19.673597276688454 6.483462465040639 0.08379251516113366
         Te 9.76516465039554 13.225447762584604 3.3133797667179197
         Te 19.65594707867492 13.247944686458274 13.123208604880302
         Te 13.145818639207686 6.635193425873436 16.49316752955117
         Te 3.191313410551632 6.529444728324766 13.104264524960008
         Te 13.209681674142288 6.617330676482034 3.1731856622425614
         Te 13.07907451945788 3.1759441354448597 0.11472211144813234
         Te 3.2013510222028834 0.11631768042290884 6.632048166102371
         Te 16.441635212168887 16.363282922298705 16.371533948534964
         Te 0.06191838091098425 16.399124052304067 6.57798238452058
         Te 19.67481646820905 3.3503666649545245 19.671627781592903
         Te 0.009994835900615201 9.821758610228164 16.47217014829843
         Te 16.357386444332857 13.09875890654537 6.663738041061293
         Te 6.518106141105158 6.5956086353685786 6.600481442066091
         Te 13.072766969007537 6.610195202884942 6.59613052635114
         Te 6.525556868065525 6.57809396404298 3.206333811639076
         Te 16.484658202896597 3.194123400620973 9.896476632751597
         Te 13.171297043479441 16.353434387460343 16.451071120453303
         Te 9.923617536113737 16.458734941024538 9.878371530731192
         Te 9.93117387158488 9.935520375170755 6.643085844156971
         Te 9.838755629674681 19.62631340199742 0.07274509149901423
         Te 0.007952811195398313 6.510740086552737 6.660673419731006
         Te 3.37180814768638 16.395666544842992 3.1772429011999703
         Te 6.475132092060112 6.450979694167999 19.631012131676588
         Te 9.836735255576297 6.49281919457664 19.708036090796167
         Te 13.079811721767406 19.683901001572323 6.659923426921997
         Te 9.887840728145022 16.504748400447156 6.558139293714481
         Te 19.61157846480004 0.1172370281540892 6.585466125300544
         Te 13.090029410285034 16.527893720149123 3.2543787170037035
         Te 19.672319385725316 9.754289347689319 19.65683659284233
         Te 6.58611637588689 0.01700527077426281 0.07094727349882882
         Te 13.077162622686364 6.526147672171525 19.6265560730572
         Te 3.1778561585083445 3.184705379204655 6.510614373128529
         Te 13.2109730153956 19.637017657750416 9.862322928873327
         Te 13.239082074181775 13.147452292466793 13.219643363792581
         Te 6.632040768302743 9.899246572055102 16.347422748981277
         Te 13.182091700970098 9.745057801209343 9.835206575154526
         Te 9.73508587489286 6.63370516786747 6.642721541212574
         Te 9.931259484614507 16.452191776461177 13.12344532284474
         Te 3.3078513820796744 3.1782764419688014 9.969937458006642
         Te 9.899574405697255 13.199098697288951 6.6125036742151435
         Te 3.35599595070414 9.79386577454071 19.625438023450684
         Te 19.63614786128595 0.059401129798841684 16.542102998360956
         Te 9.782125965944946 6.556972373509085 16.421691058012673
         Te 9.900054085150543 9.931461054465021 9.913352985478431
         Te 0.12464393932355075 0.10851001938910668 9.957450810007016
         Te 13.059185640272315 13.195945841484749 9.821263699636097
         Te 3.2821297194322465 9.731447844314472 9.952733353692569
         Te 13.25226862991121 16.38977720679599 0.10433669958506353
         Te 9.882122040363438 13.152511662126905 9.962643224947463
         Te 9.935326817859817 3.2039850141728614 9.95518182828525
         Te 16.32775235840826 6.6371405170905104 16.50519811820133
         Te 16.54007926448511 19.676145774890465 3.267300745742231
         Te 9.951131508315012 9.827880828339307 16.514166728450853
         Te 9.974414767078942 13.228567038742503 0.10620208248741894
         Te 16.469961274124227 13.06834764970813 16.461110365133287
         Te 13.106391189356247 3.176988561096828 13.03789446373474
         Te 9.836813441145333 0.09781398919039747 16.543042241748843
         Te 3.206997629164934 6.466330328942621 9.80450657319136
         Te 16.388019203474613 6.68547168765526 13.146730575806416
         Te 16.360503634939587 9.828862570969637 13.189232178743225
         Te 6.536959238487543 0.12415580966585157 13.037771868647766
         Te 3.353235873686 0.06768961384107713 16.334687974985055
         Te 16.525091578590203 19.601772454428254 19.69136459203889
         Te 6.62295380249255 13.01686441864988 9.875961579951866
         Te 6.664926403564244 16.44852941367769 19.67384917636338
         Te 9.788303208917057 19.687887349414158 6.513336686257628
         Te 3.346392132157424 6.606708976409688 16.524081944124514
         Te 9.760817026824418 3.3801265189254552 13.216920024827859
         Te 6.451669631878396 3.2177680107552282 19.684366309505755
         Te 0.02255059071974977 13.244093408361211 6.651059984285688
         Te 13.254359348451116 16.320865954475284 13.219693557982783
         Te 19.701922848058377 9.764919432033142 13.191361600776835
         Te 6.662016932837289 9.787325220206418 3.287156738955496
         Te 6.661074469998524 13.0768547576596 3.1786401801989754
         Te 0.019429774389978196 9.87458970594324 9.83896246812251
         Te 0.1246246000419493 13.187674493421609 3.282079795390702
         Te 13.037866970896868 13.093824247060667 6.450402674356081
         Te 16.419403724442407 6.4735068241687745 6.510304746585869
         Te 16.307689112957284 13.133095374152319 9.879781240749315
         Te 13.255619072133742 6.491807660095477 13.230762975314207
         Te 9.775396652943565 6.6538547291822825 13.206918605961386
         Te 0.020702919977882178 13.053539235877379 16.48277763605271
         Te 9.74333336911387 13.022694205708847 16.49688340593366
         Te 16.35202049019851 9.92027331900001 9.920509308373575
         Te 19.610994868418505 16.45797601645445 13.060863681516281
         Te 9.835262193010308 3.306697279553007 6.447155919726146
         Te 13.159534045392013 0.08033272374373304 3.2112653659844224
         Te 6.683082223382314 19.699523659441418 9.898446457827133
         Te 13.06968976901516 13.241791512794725 16.370864086522854
         Te 13.249449283069481 19.588126164093353 16.385092133038814
         Te 19.658321605069922 0.09056277237554003 3.2508980183576504
         Te 19.620161543569434 13.016906899646626 19.62251409063213
         Te 3.3999878033482185 13.17687591855303 13.194808125357564
         Te 19.625623813901036 0.07080246832210985 19.696476496185717
         Te 3.3266235561643076 3.165672594972066 3.3673668000998265
      &END COORD
      &CELL
         PERIODIC XYZ
         A 19.71222 0.000000000000000000e+00 0.000000000000000000e+00
         B 0.000000000000000000e+00 19.71222 0.000000000000000000e+00
         C 0.000000000000000000e+00 0.000000000000000000e+00 19.71222
      &END CELL
     &END SUBSYS
   &PRINT
      &STRESS_TENSOR ON
      &END STRESS_TENSOR
   &END PRINT
&END FORCE_EVAL

&MOTION
   &MD
      ENSEMBLE NVT
      STEPS 7500
      TIMESTEP 2.0
      TEMPERATURE 1150.0
      &THERMOSTAT
         &NOSE                    #Uses the Nose-Hoover thermostat
            TIMECON 200           #timeconstant of the thermostat chain, how often does thermostat adjust your system 
         &END NOSE
      &END
   &END MD
   &PRINT
      &TRAJECTORY
         &EACH
            MD 1
         &END EACH
      &END TRAJECTORY
      &FORCES ON
      &END
      &RESTART
         BACKUP_COPIES 1
      &END RESTART
   &END PRINT
&END MOTION
