Ge3 Te3
1.0
4.230666 0.000000 0.000000
-2.115333 3.663864 0.000000
0.000000 0.000000 10.889580
Ge Te
3 3
direct
0.000000 0.000000 0.004940 Ge
0.666667 0.333333 0.338273 Ge
0.333333 0.666667 0.671607 Ge
0.333333 0.666667 0.140727 Te
0.000000 0.000000 0.474060 Te
0.666667 0.333333 0.807393 Te
